p td 22 117
2 1
4 1
5 3
5 4
5 2
6 1
6 4
6 5
6 3
7 5
7 2
7 6
8 7
8 2
8 4
8 3
8 6
8 1
9 6
9 7
9 2
10 4
10 8
10 2
10 6
10 3
11 1
11 5
11 9
11 4
12 2
12 3
12 10
12 9
12 1
12 4
12 5
13 7
13 4
13 12
13 2
13 9
13 11
13 3
14 3
14 4
14 11
14 8
15 12
15 4
15 13
15 6
15 10
15 7
15 9
15 11
16 11
16 8
16 1
16 14
16 5
16 9
16 6
16 2
16 12
16 3
16 7
17 3
17 16
17 7
17 2
17 15
17 1
17 14
17 8
18 16
18 9
18 12
18 7
18 11
18 10
18 2
18 15
18 1
18 14
18 6
19 18
19 15
19 16
19 6
19 14
19 8
19 17
20 15
20 14
20 3
20 7
20 19
21 15
21 7
21 17
21 18
21 1
21 14
21 12
21 3
21 16
21 11
22 5
22 18
22 9
22 2
22 13
22 7
22 21
22 17
22 4
